(set-logic ALL)
(set-option :produce-models true)
(declare-sort BoundSet 0)
(declare-sort UnboundSet 0)
(set-option :finite-model-find true)
(declare-fun HasIncreasedEmissions (BoundSet BoundSet) Bool)
(declare-fun IsContributor (BoundSet BoundSet) Bool)
(assert (not (=> (exists ((a BoundSet)) (exists ((b BoundSet)) (HasIncreasedEmissions a b))) (exists ((a BoundSet)) (exists ((d BoundSet)) (IsContributor a d))))))
(check-sat)
(get-model)